%Chk=pig_CYP17A1_small_opt.chk
%Mem=3000MB
%NProcShared=2
# B3LYP/6-31G* Geom=PrintInputOrient Integral=(Grid=UltraFine) Opt
 
CLR
 
-2  6
H          21.019    9.755  -61.540
C          20.481    8.808  -61.488
H          21.073    8.013  -61.033
C          19.997    8.394  -62.884
S          18.685    7.132  -62.875
H          19.605    8.985  -60.864
H          20.845    8.060  -63.484
H          19.632    9.275  -63.414
C          17.119   10.618  -60.636
C          16.893    9.949  -65.428
C          15.721    5.351  -64.685
C          16.089    5.974  -59.904
C          17.139   10.874  -62.016
C          17.239   12.127  -62.607
C          17.186   11.930  -63.973
C          17.050   10.568  -64.178
C          17.202   13.012  -65.043
C          17.319   13.489  -61.920
C          18.716   14.147  -62.062
C          18.919   15.456  -61.261
O          20.035   16.007  -61.388
O          17.997   15.910  -60.543
C          16.530    8.626  -65.715
C          16.273    8.077  -66.957
C          15.835    6.781  -66.730
C          15.935    6.560  -65.366
C          16.420    8.804  -68.287
C          15.349    5.773  -67.689
C          15.740    5.640  -68.961
C          15.749    5.077  -63.310
C          15.642    3.821  -62.738
C          15.680    4.002  -61.364
C          15.892    5.356  -61.152
C          15.528    2.519  -63.523
C          15.604    2.988  -60.291
C          16.131    1.756  -60.335
C          16.409    7.310  -59.620
C          16.491    7.905  -58.375
C          16.790    9.235  -58.591
C          16.887    9.412  -59.961
C          16.247    7.263  -57.015
C          16.929   10.303  -57.519
C          18.405   10.597  -57.147
C          18.565   11.678  -56.057
O          19.574   11.611  -55.319
O          17.703   12.579  -55.961
N          17.023    9.937  -62.985
N          16.314    7.698  -64.769
N          15.896    5.999  -62.338
N          16.668    8.233  -60.564
H          17.262   11.472  -59.994
H          16.979   10.599  -66.283
H          15.512    4.502  -65.319
H          15.981    5.331  -59.044
H          16.614   12.789  -65.782
H          16.901   13.860  -64.682
H          18.100   13.127  -65.391
H          17.081   13.396  -60.984
H          16.637   14.067  -62.297
H          18.880   14.336  -62.999
H          19.396   13.512  -61.788
H          15.848    8.419  -68.969
H          16.171    9.738  -68.210
H          17.339    8.759  -68.595
H          14.583    5.103  -67.324
H          15.324    4.967  -69.523
H          16.436    6.195  -69.346
H          15.343    1.753  -62.957
H          14.816    2.577  -64.179
H          16.359    2.339  -63.989
H          15.057    3.268  -59.403
H          16.018    1.137  -59.597
H          16.643    1.452  -61.101
H          16.860    7.622  -56.355
H          15.340    7.435  -56.716
H          16.383    6.303  -57.042
H          16.440   10.016  -56.732
H          16.480   11.104  -57.832
H          18.890   10.890  -57.934
H          18.827    9.773  -56.858
H          17.283   11.354  -60.092
H          17.052   10.491  -66.167
H          15.532    4.621  -65.229
H          15.994    5.419  -59.164
H          14.682    5.146  -67.367
H          15.130    3.236  -59.482
Fe         16.522    7.959  -62.712
 
 
