%Chk=pig_CYP17A1_large_mk.chk
%Mem=3000MB
%NProcShared=2
# B3LYP/6-31G* Integral=(Grid=UltraFine) Opt Pop(MK,ReadRadii)
IOp(6/33=2,6/42=6)
 
CLR
 
-2  6
H       0   22.400   12.760  -59.921
C      -1   22.338   12.089  -60.778
C      -1   21.607   10.767  -60.488
O      -1   21.433   10.390  -59.331
H       0   23.341   11.896  -61.159
H       0   21.782   12.618  -61.552
N      -1   21.201   10.075  -61.557
C      -1   20.481    8.808  -61.488
C      -1   21.318    7.684  -60.845
O      -1   22.426    7.408  -61.306
C      -1   19.997    8.394  -62.884
S      -1   18.685    7.132  -62.875
H       0   21.367   10.441  -62.487
H       0   19.603    8.985  -60.863
H       0   20.845    8.060  -63.484
H       0   19.632    9.275  -63.414
N      -1   20.741    7.039  -59.817
C      -1   21.299    5.845  -59.171
H       0   21.066    4.927  -59.710
H       0   20.926    5.730  -58.153
H       0   19.831    7.333  -59.496
H       0   22.384    5.941  -59.133
C      -1   17.119   10.618  -60.636
C      -1   16.893    9.949  -65.428
C      -1   15.721    5.351  -64.685
C      -1   16.089    5.974  -59.904
C      -1   17.139   10.874  -62.016
C      -1   17.239   12.127  -62.607
C      -1   17.186   11.930  -63.973
C      -1   17.050   10.568  -64.178
C      -1   17.202   13.012  -65.043
C      -1   17.319   13.489  -61.920
C      -1   18.716   14.147  -62.062
C      -1   18.919   15.456  -61.261
O      -1   20.035   16.007  -61.388
O      -1   17.997   15.910  -60.543
C      -1   16.530    8.626  -65.715
C      -1   16.273    8.077  -66.957
C      -1   15.835    6.781  -66.730
C      -1   15.935    6.560  -65.366
C      -1   16.420    8.804  -68.287
C      -1   15.349    5.773  -67.689
C      -1   15.740    5.640  -68.961
C      -1   15.749    5.077  -63.310
C      -1   15.642    3.821  -62.738
C      -1   15.680    4.002  -61.364
C      -1   15.892    5.356  -61.152
C      -1   15.528    2.519  -63.523
C      -1   15.604    2.988  -60.291
C      -1   16.131    1.756  -60.335
C      -1   16.409    7.310  -59.620
C      -1   16.491    7.905  -58.375
C      -1   16.790    9.235  -58.591
C      -1   16.887    9.412  -59.961
C      -1   16.247    7.263  -57.015
C      -1   16.929   10.303  -57.519
C      -1   18.405   10.597  -57.147
C      -1   18.565   11.678  -56.057
O      -1   19.574   11.611  -55.319
O      -1   17.703   12.579  -55.961
N      -1   17.023    9.937  -62.985
N      -1   16.314    7.698  -64.769
N      -1   15.896    5.999  -62.338
N      -1   16.668    8.233  -60.564
H       0   17.262   11.472  -59.994
H       0   16.979   10.599  -66.283
H       0   15.512    4.502  -65.319
H       0   15.981    5.331  -59.044
H       0   16.614   12.789  -65.782
H       0   16.901   13.860  -64.682
H       0   18.100   13.127  -65.391
H       0   17.081   13.396  -60.984
H       0   16.637   14.067  -62.297
H       0   18.880   14.336  -62.999
H       0   19.396   13.512  -61.788
H       0   15.848    8.419  -68.969
H       0   16.171    9.738  -68.210
H       0   17.339    8.759  -68.595
H       0   14.583    5.103  -67.324
H       0   15.324    4.967  -69.523
H       0   16.436    6.195  -69.346
H       0   15.343    1.753  -62.957
H       0   14.816    2.577  -64.179
H       0   16.359    2.339  -63.989
H       0   15.057    3.268  -59.403
H       0   16.018    1.137  -59.597
H       0   16.643    1.452  -61.101
H       0   16.860    7.622  -56.355
H       0   15.340    7.435  -56.716
H       0   16.383    6.303  -57.042
H       0   16.440   10.016  -56.732
H       0   16.480   11.104  -57.832
H       0   18.890   10.890  -57.934
H       0   18.827    9.773  -56.858
H       0   17.283   11.354  -60.092
H       0   17.052   10.491  -66.167
H       0   15.532    4.621  -65.229
H       0   15.994    5.419  -59.164
H       0   14.682    5.146  -67.367
H       0   15.130    3.236  -59.482
Fe     -1   16.522    7.959  -62.712
 
Fe 1.391
 
Fe 1.391
 
 
